* ENCODING=ISO-8859-1
NAME          CPLEX
ROWS
 N  obj1    
 G  c1      
 G  c2      
 G  c3      
 G  c4      
 G  c5      
 G  c6      
 G  c7      
 G  c8      
 G  c9      
 G  c10     
 G  c11     
 G  c12     
 G  c13     
 G  c14     
 G  c15     
 G  c16     
 G  c17     
 G  c18     
 G  c19     
 G  c20     
 G  c21     
 G  c22     
 G  c23     
 G  c24     
 G  c25     
 G  c26     
 G  c27     
 G  c28     
 G  c29     
 G  c30     
 G  c31     
 G  c32     
 G  c33     
 G  c34     
 G  c35     
 G  c36     
 G  c37     
 G  c38     
 G  c39     
 G  c40     
 G  c41     
 G  c42     
 G  c43     
 G  c44     
 G  c45     
 G  c46     
 G  c47     
 G  c48     
 G  c49     
 G  c50     
COLUMNS
    MARK0000  'MARKER'                 'INTORG'
    x1        obj1                            1
    x1        c39                           779
    x2        obj1                            1
    x2        c2                            492
    x2        c23                           217
    x2        c50                           730
    x3        obj1                            1
    x4        obj1                            1
    x4        c4                            719
    x4        c9                            218
    x4        c13                           679
    x4        c15                           831
    x4        c16                           161
    x4        c17                           448
    x4        c50                           204
    x5        obj1                            1
    x5        c26                           350
    x5        c30                           656
    x5        c33                           210
    x6        obj1                            1
    x6        c6                            980
    x6        c10                           192
    x6        c44                           998
    x7        obj1                            1
    x7        c4                            774
    x7        c10                           925
    x7        c26                           574
    x7        c33                           287
    x7        c41                           230
    x8        obj1                            1
    x8        c10                           819
    x8        c12                           610
    x8        c13                           387
    x8        c21                           737
    x8        c34                           691
    x8        c42                           568
    x8        c49                           649
    x8        c50                           705
    x9        obj1                            1
    x9        c12                           189
    x9        c14                           994
    x9        c24                           893
    x9        c27                           650
    x9        c32                           386
    x10       obj1                            1
    x10       c18                           846
    x10       c23                           332
    x11       obj1                            1
    x11       c17                           521
    x11       c23                           545
    x11       c32                           520
    x11       c33                           409
    x11       c37                           570
    x11       c39                           923
    x12       obj1                            1
    x12       c19                           333
    x12       c27                           442
    x12       c46                           805
    x12       c48                           886
    x12       c49                           966
    x13       obj1                            1
    x13       c10                           211
    x13       c18                           169
    x13       c24                           590
    x13       c32                           238
    x13       c42                           129
    x14       obj1                            1
    x14       c7                            128
    x14       c25                           268
    x14       c43                           740
    x14       c46                           455
    x15       obj1                            1
    x15       c15                           362
    x15       c20                           284
    x15       c31                           206
    x16       obj1                            1
    x16       c21                           891
    x16       c24                           296
    x16       c36                           987
    x16       c45                           626
    x17       obj1                            1
    x17       c8                            862
    x17       c25                           319
    x17       c44                           474
    x17       c46                           119
    x18       obj1                            1
    x18       c11                           477
    x18       c13                           588
    x18       c27                           135
    x18       c44                           112
    x19       obj1                            1
    x19       c5                            756
    x19       c28                           558
    x19       c38                           549
    x19       c44                           618
    x20       obj1                            1
    x20       c29                           318
    x20       c49                           101
    x21       obj1                            1
    x21       c4                            648
    x21       c6                            903
    x21       c14                           785
    x21       c29                           173
    x21       c37                           525
    x21       c42                           467
    x21       c45                           747
    x22       obj1                            1
    x22       c11                           374
    x22       c13                           671
    x22       c16                           158
    x22       c28                           881
    x22       c39                           126
    x23       obj1                            1
    x23       c11                           230
    x23       c17                           936
    x23       c19                           248
    x24       obj1                            1
    x24       c1                            966
    x24       c9                            898
    x24       c40                           149
    x24       c43                           272
    x25       obj1                            1
    x25       c4                            669
    x25       c12                           171
    x25       c13                           182
    x25       c20                           940
    x26       obj1                            1
    x26       c4                            152
    x26       c8                            720
    x26       c9                            639
    x26       c11                           319
    x26       c26                           263
    x26       c33                           805
    x26       c48                           455
    x27       obj1                            1
    x27       c7                            589
    x27       c11                           245
    x27       c29                           959
    x27       c39                           620
    x27       c45                           447
    x27       c49                           517
    x28       obj1                            1
    x28       c28                           692
    x28       c32                           967
    x28       c35                           323
    x28       c46                           981
    x28       c47                           216
    x28       c50                           325
    x29       obj1                            1
    x29       c1                            928
    x29       c3                            255
    x29       c10                           372
    x29       c14                           129
    x29       c16                           343
    x29       c27                           744
    x29       c28                           720
    x30       obj1                            1
    x30       c1                            381
    x30       c20                           140
    x30       c31                           651
    x30       c34                           516
    x30       c47                           713
    x31       obj1                            1
    x31       c5                            218
    x31       c18                           179
    x31       c27                           328
    x32       obj1                            1
    x32       c11                           583
    x32       c13                           736
    x32       c22                           375
    x32       c25                           970
    x32       c37                           507
    x33       obj1                            1
    x33       c16                           152
    x33       c18                           206
    x33       c38                           775
    x33       c40                           240
    x33       c45                           773
    x33       c50                           947
    x34       obj1                            1
    x34       c7                            428
    x34       c16                           249
    x34       c30                           976
    x34       c34                           655
    x34       c35                           633
    x35       obj1                            1
    x35       c6                            651
    x35       c10                           588
    x35       c11                           360
    x35       c29                           458
    x35       c34                           177
    x35       c49                           987
    x36       obj1                            1
    x36       c12                           327
    x36       c25                           933
    x36       c39                           196
    x36       c41                           449
    x36       c48                           512
    x37       obj1                            1
    x37       c8                            284
    x37       c12                           493
    x37       c17                           367
    x37       c25                           470
    x37       c35                           555
    x37       c37                           664
    x38       obj1                            1
    x38       c4                            832
    x38       c8                            536
    x38       c36                           229
    x38       c40                           519
    x39       obj1                            1
    x39       c24                           614
    x39       c27                           421
    x40       obj1                            1
    x40       c3                            792
    x40       c5                            652
    x40       c25                           804
    x40       c44                           576
    x41       obj1                            1
    x41       c3                            910
    x41       c30                           176
    x41       c44                           647
    x42       obj1                            1
    x42       c1                            436
    x42       c30                           790
    x42       c32                           714
    x42       c44                           516
    x42       c46                           482
    x42       c47                           995
    x43       obj1                            1
    x43       c2                            697
    x43       c17                           894
    x43       c19                           687
    x43       c22                           677
    x43       c41                           256
    x44       obj1                            1
    x44       c12                           206
    x44       c15                           222
    x44       c18                           834
    x44       c25                           254
    x44       c30                           908
    x44       c41                           225
    x45       obj1                            1
    x45       c4                            463
    x45       c19                           413
    x45       c21                           463
    x45       c24                           486
    x45       c27                           405
    x45       c34                           885
    x45       c49                           692
    x46       obj1                            1
    x46       c3                            673
    x46       c9                            471
    x46       c40                           387
    x46       c45                           700
    x46       c49                           772
    x47       obj1                            1
    x47       c17                           997
    x47       c22                           843
    x47       c36                           898
    x48       obj1                            1
    x48       c31                           213
    x48       c39                           355
    x48       c43                           499
    x49       obj1                            1
    x49       c16                           181
    x49       c19                           702
    x49       c34                           802
    x49       c36                           139
    x49       c37                           920
    x49       c38                           101
    x50       obj1                            1
    x50       c2                            597
    x50       c14                           154
    x50       c17                           422
    x50       c40                           804
    x50       c42                           851
    x50       c45                           973
    x50       c46                           828
    x50       c48                           250
    MARK0001  'MARKER'                 'INTEND'
RHS
    rhs       c1                           1356
    rhs       c2                            893
    rhs       c3                           1315
    rhs       c4                           2129
    rhs       c5                            813
    rhs       c6                           1267
    rhs       c7                            573
    rhs       c8                           1201
    rhs       c9                           1113
    rhs       c10                          1554
    rhs       c11                          1294
    rhs       c12                           998
    rhs       c13                          1622
    rhs       c14                          1031
    rhs       c15                           708
    rhs       c16                           622
    rhs       c17                          2293
    rhs       c18                          1117
    rhs       c19                          1192
    rhs       c20                           682
    rhs       c21                          1046
    rhs       c22                           948
    rhs       c23                           547
    rhs       c24                          1440
    rhs       c25                          2009
    rhs       c26                           594
    rhs       c27                          1563
    rhs       c28                          1426
    rhs       c29                           954
    rhs       c30                          1753
    rhs       c31                           535
    rhs       c32                          1413
    rhs       c33                           856
    rhs       c34                          1863
    rhs       c35                           756
    rhs       c36                          1127
    rhs       c37                          1593
    rhs       c38                           713
    rhs       c39                          1500
    rhs       c40                          1050
    rhs       c41                           580
    rhs       c42                          1008
    rhs       c43                           756
    rhs       c44                          1971
    rhs       c45                          2133
    rhs       c46                          1835
    rhs       c47                           962
    rhs       c48                          1052
    rhs       c49                          2342
    rhs       c50                          1456
BOUNDS
 LI bnd       x1        0
 LI bnd       x2        0
 LI bnd       x3        0
 LI bnd       x4        0
 LI bnd       x5        0
 LI bnd       x6        0
 LI bnd       x7        0
 LI bnd       x8        0
 LI bnd       x9        0
 LI bnd       x10       0
 LI bnd       x11       0
 LI bnd       x12       0
 LI bnd       x13       0
 LI bnd       x14       0
 LI bnd       x15       0
 LI bnd       x16       0
 LI bnd       x17       0
 LI bnd       x18       0
 LI bnd       x19       0
 LI bnd       x20       0
 LI bnd       x21       0
 LI bnd       x22       0
 LI bnd       x23       0
 LI bnd       x24       0
 LI bnd       x25       0
 LI bnd       x26       0
 LI bnd       x27       0
 LI bnd       x28       0
 LI bnd       x29       0
 LI bnd       x30       0
 LI bnd       x31       0
 LI bnd       x32       0
 LI bnd       x33       0
 LI bnd       x34       0
 LI bnd       x35       0
 LI bnd       x36       0
 LI bnd       x37       0
 LI bnd       x38       0
 LI bnd       x39       0
 LI bnd       x40       0
 LI bnd       x41       0
 LI bnd       x42       0
 LI bnd       x43       0
 LI bnd       x44       0
 LI bnd       x45       0
 LI bnd       x46       0
 LI bnd       x47       0
 LI bnd       x48       0
 LI bnd       x49       0
 LI bnd       x50       0
ENDATA
